num_items = 7;
num_bids = 5;
max_item = 7;

% Binary matrix representation of packages
packages = array2d(1..num_bids, 1..num_items, [
    1, 1, 1, 1, 0, 0, 0,  % Bid 1: {1,2,3,4}
    0, 1, 1, 0, 0, 1, 0,  % Bid 2: {2,3,6}
    1, 0, 0, 1, 1, 0, 0,  % Bid 3: {1,4,5}
    0, 1, 0, 0, 0, 0, 1,  % Bid 4: {2,7}
    0, 0, 0, 0, 1, 1, 0   % Bid 5: {5,6}
]);

% Bid values
bids = [8,6,5,2,2];
